15
1 0 4
2 0 10
3 0 6
4 0 3
4 1 2
4 3 5
5 2 3
5 4 6
6 1 10
6 2 9
6 5 7
7 0 1
7 1 10
7 5 4
8 1 6
8 2 10
8 3 6
8 5 3
8 7 9
9 3 3
9 5 5
9 6 2
9 8 5
10 0 5
10 1 3
10 6 5
10 8 1
11 4 6
11 5 8
11 6 3
11 8 9
11 10 2
12 1 4
12 3 4
12 7 1
13 5 2
13 6 9
13 8 9
13 10 5
13 11 4
13 12 6
14 0 5
14 6 6
14 8 2
14 13 6
